logging:
Cal Parameter: OK
initial master model!!
initial sub model!
the ToD used now : 388.0
big Pi is 393.0
CPXPARAM_TimeLimit                               300
Tried aggregator 2 times.
MIP Presolve eliminated 96162 rows and 91852 columns.
MIP Presolve modified 61826 coefficients.
Aggregator did 4 substitutions.
Reduced MIP has 9913 rows, 103159 columns, and 1161406 nonzeros.
Reduced MIP has 103159 binaries, 0 generals, 0 SOSs, and 0 indicators.
Presolve time = 2.78 sec. (1149.94 ticks)
Tried aggregator 1 time.
Reduced MIP has 9913 rows, 103159 columns, and 1161406 nonzeros.
Reduced MIP has 103159 binaries, 0 generals, 0 SOSs, and 0 indicators.
Presolve time = 1.78 sec. (654.57 ticks)
Probing fixed 66 vars, tightened 0 bounds.
Probing time = 4.78 sec. (1887.28 ticks)
Clique table members: 576977.
MIP emphasis: balance optimality and feasibility.
MIP search method: dynamic search.
Parallel mode: deterministic, using up to 4 threads.
Root relaxation solution time = 27.88 sec. (23244.87 ticks)

        Nodes                                         Cuts/
   Node  Left     Objective  IInf  Best Integer    Best Bound    ItCnt     Gap

*     0+    0                            2.0000    23753.0000              --- 
      0     0       20.3138   113        2.0000       20.3138       16  915.69%
      0     0       20.2736   131        2.0000       Cuts: 3      369  913.68%
Heuristic still looking.
Heuristic still looking.
*     0+    0                            3.0000       20.2736           575.79%
      0     2       20.2736   131        3.0000       20.2736      369  575.79%
Elapsed time = 181.28 sec. (73551.19 ticks, tree = 0.02 MB, solutions = 2)
      1     3       19.7424    96        3.0000       20.2730     1026  575.77%
      2     2        cutoff              3.0000       20.2730     2554  575.77%
      3     3       20.1816   116        3.0000       20.2730      789  575.77%
      4     4       20.0820   126        3.0000       20.1801     3367  572.67%
      6     5       20.0643   117        3.0000       20.1796     3536  572.65%
      7     6       19.7467   134        3.0000       20.0810     4615  569.37%
      9     7       20.0558    90        3.0000       20.0810     4525  569.37%
     10     9       18.5211    93        3.0000       20.0642     5671  568.81%
     11     8       19.5236   123        3.0000       20.0642     5071  568.81%
     12    10       20.0351   123        3.0000       20.0634     5781  568.78%
Elapsed time = 197.55 sec. (86423.19 ticks, tree = 0.32 MB, solutions = 2)
     13     4       19.6564   102        3.0000       20.0634     1256  568.78%
     16    11       20.0158   132        3.0000       20.0634     5944  568.78%
     17    14       18.4616    92        3.0000       20.0634     6582  568.78%
     18    13       19.5211   120        3.0000       20.0634     6926  568.78%
     20    17       19.5075   149        3.0000       20.0634     7998  568.78%
     22    18       19.3768   104        3.0000       20.0634     8029  568.78%
     25    19       19.2778   139        3.0000       20.0634    10695  568.78%
     27    20       18.6135   112        3.0000       20.0634    11346  568.78%
     36    23        cutoff              3.0000       20.0634    13348  568.78%
     38    20       18.6050   117        3.0000       20.0634    12388  568.78%
Elapsed time = 229.47 sec. (99775.92 ticks, tree = 0.73 MB, solutions = 2)
     39    29       18.4735   109        3.0000       20.0634    19271  568.78%
     43    32       19.2348    97        3.0000       20.0634    22103  568.78%
     47    30       18.3682   109        3.0000       20.0634    21447  568.78%
     52    33       19.0824    84        3.0000       20.0634    22949  568.78%
     56    35       18.1633   102        3.0000       20.0634    28884  568.78%
     59    33       17.8802    88        3.0000       20.0634    26013  568.78%
     61    33       17.3886   116        3.0000       20.0634    30356  568.78%
     69    39       17.2789   115        3.0000       20.0634    33716  568.78%
     75    34        cutoff              3.0000       20.0634    32196  568.78%
     76    35       17.2341   114        3.0000       20.0634    32610  568.78%
Elapsed time = 265.78 sec. (113341.57 ticks, tree = 1.56 MB, solutions = 2)
     81    46       18.8759    87        3.0000       20.0634    41583  568.78%
     84    48        cutoff              3.0000       20.0634    42750  568.78%
     88    40        cutoff              3.0000       20.0634    36879  568.78%
     90    56       16.9787   118        3.0000       20.0634    48465  568.78%
     93    57       16.9589   113        3.0000       20.0634    53648  568.78%
     96    58        cutoff              3.0000       20.0634    56078  568.78%
    100    60       17.8774    99        3.0000       20.0634    56648  568.78%
